4483595.0	195000.0	4303863	6616	221	13	48
4532831.0	180000.0	4359396	6511	240	12	46
4551207.0	135000.0	4376258	7433	232	9	45
4559156.0	60000.0	4388141	6723	200	4	45
4701885.0	45000.0	4522272	7149	239	3	47
4873713.0	30000.0	4689424	7501	232	2	48
